Copyright (C) 2013-2015, Filipe Brandao
Build (method = -2)
  #dp: 46763
  Step-3' Graph: 364 vertices and 23804 arcs (0.13s)
  Step-4' Graph: 361 vertices and 23798 arcs (0.13s)
  #V4/#V3 = 0.99
  #A4/#A3 = 1.00
Ready! (0.13s)
Optimize a model with 581 rows, 23799 columns and 70680 nonzeros
Presolve removed 71 rows and 71 columns
Presolve time: 0.10s
Presolved: 510 rows, 23728 columns, 70159 nonzeros
Variable types: 0 continuous, 23728 integer (11367 binary)
Optimize a model with 510 rows, 23728 columns and 70159 nonzeros
Presolved: 510 rows, 23728 columns, 70159 nonzeros

Root barrier log...

Ordering time: 0.01s

Barrier statistics:
 AA' NZ     : 4.472e+04
 Factor NZ  : 8.171e+04 (roughly 10 MBytes of memory)
 Factor Ops : 1.769e+07 (less than 1 second per iteration)
 Threads    : 1

                  Objective                Residual
Iter       Primal          Dual         Primal    Dual     Compl     Time
   0   6.13020310e+04 -4.10810964e+05  7.55e+05 7.95e-02  1.51e+02     0s
   1   1.64433509e+04 -8.56143305e+04  8.11e+04 1.33e-15  1.74e+01     0s
   2   3.30938254e+03 -3.02755251e+04  8.75e+03 1.20e-02  2.30e+00     0s
   3   1.32110361e+03 -1.26090843e+04  1.03e+03 2.93e-03  4.55e-01     0s
   4   7.11575790e+02 -2.53626641e+03  1.90e+02 3.60e-04  9.25e-02     0s
   5   6.44890067e+02 -1.24538566e+03  1.61e+02 4.97e-05  5.76e-02     0s
   6   4.85811520e+02 -6.67505460e+02  9.52e+01 8.24e-16  3.36e-02     0s
   7   3.51322083e+02 -3.46855555e+02  4.77e+01 1.00e-15  1.87e-02     0s
   8   2.64224560e+02 -1.12156439e+02  2.18e+01 9.99e-16  9.45e-03     0s
   9   2.25817257e+02 -1.16130995e+01  1.36e+01 8.88e-16  5.82e-03     0s
  10   2.09174787e+02  4.77606776e+01  1.03e+01 8.52e-16  3.93e-03     0s
  11   1.96579515e+02  7.77484588e+01  8.04e+00 8.75e-16  2.86e-03     0s
  12   1.84681082e+02  1.02527077e+02  5.73e+00 1.11e-15  1.95e-03     0s
  13   1.73065780e+02  1.18723993e+02  3.39e+00 9.16e-16  1.25e-03     0s
  14   1.68038895e+02  1.27369065e+02  2.09e+00 9.08e-16  9.14e-04     0s
  15   1.65026555e+02  1.35496853e+02  1.31e+00 1.11e-15  6.51e-04     0s
  16   1.63406635e+02  1.44107351e+02  8.85e-01 1.04e-15  4.21e-04     0s
  17   1.61322335e+02  1.52134011e+02  3.39e-01 7.71e-16  1.97e-04     0s
  18   1.60809886e+02  1.54269597e+02  2.09e-01 7.74e-16  1.39e-04     0s
  19   1.60287622e+02  1.55402593e+02  9.02e-02 8.19e-16  1.03e-04     0s
  20   1.59971493e+02  1.57074731e+02  3.35e-02 8.62e-16  6.12e-05     0s
  21   1.59803882e+02  1.58336898e+02  1.52e-02 7.78e-16  3.09e-05     0s
  22   1.59768193e+02  1.58558161e+02  1.28e-02 1.01e-15  2.55e-05     0s
  23   1.59694816e+02  1.58656265e+02  8.75e-03 1.20e-15  2.19e-05     0s
  24   1.59661471e+02  1.58922403e+02  7.04e-03 1.01e-15  1.56e-05     0s
  25   1.59607767e+02  1.59141171e+02  4.09e-03 1.20e-15  9.83e-06     0s
  26   1.59570169e+02  1.59242377e+02  2.80e-03 1.08e-15  6.91e-06     0s
  27   1.59566082e+02  1.59314404e+02  2.55e-03 1.06e-15  5.31e-06     0s
  28   1.59532509e+02  1.59373205e+02  1.39e-03 8.91e-16  3.36e-06     0s
  29   1.59511823e+02  1.59424298e+02  8.62e-04 7.19e-16  1.84e-06     0s
  30   1.59494797e+02  1.59450227e+02  4.94e-04 8.04e-16  9.40e-07     0s
  31   1.59487194e+02  1.59459139e+02  3.57e-04 6.71e-16  5.92e-07     0s
  32   1.59482269e+02  1.59467849e+02  1.94e-04 6.64e-16  3.04e-07     0s
  33   1.59478273e+02  1.59471439e+02  8.46e-05 7.77e-16  1.44e-07     0s
  34   1.59473226e+02  1.59472666e+02  5.57e-06 7.69e-16  1.18e-08     0s
  35   1.59472838e+02  1.59472837e+02  1.34e-08 7.74e-16  2.17e-11     0s
  36   1.59472837e+02  1.59472837e+02  2.92e-11 8.09e-16  2.17e-14     0s

Barrier solved model in 36 iterations and 0.39 seconds
Optimal objective 1.59472837e+02


Root relaxation: objective 1.594728e+02, 2898 iterations, 0.45 seconds

    Nodes    |    Current Node    |     Objective Bounds      |     Work
 Expl Unexpl |  Obj  Depth IntInf | Incumbent    BestBd   Gap | It/Node Time

     0     0  159.47284    0   87          -  159.47284     -      -    2s
H    0     0                     161.0000000  159.47284  0.95%     -    2s
H    0     0                     160.0000000  159.47284  0.33%     -    4s

Explored 0 nodes (12006 simplex iterations) in 4.59 seconds
Thread count was 1 (of 4 available processors)

Optimal solution found (tolerance 0.00e+00)
Best objective 1.600000000000e+02, best bound 1.600000000000e+02, gap 0.0%
Preprocessing time: 0.17 seconds
Gurobi run time: 4.59 seconds
Total run time: 4.76 seconds
Objective: 160
Solution:
1 x [i=1, i=145]
1 x [i=1, i=189, i=215]
1 x [i=1, i=193, i=210]
1 x [i=1, i=199, i=205]
1 x [i=2, i=192, i=210]
1 x [i=2, i=199, i=204]
1 x [i=3, i=144]
2 x [i=4, i=143]
1 x [i=5, i=187, i=213]
1 x [i=6, i=141]
2 x [i=7, i=141]
1 x [i=8, i=140]
1 x [i=9, i=139]
1 x [i=9, i=183, i=214]
1 x [i=10, i=138]
1 x [i=11, i=134]
1 x [i=12, i=185, i=207]
1 x [i=12, i=193, i=198]
1 x [i=13, i=133]
3 x [i=14, i=132]
1 x [i=14, i=186, i=202]
1 x [i=15, i=131]
1 x [i=15, i=185, i=203]
1 x [i=16, i=129]
2 x [i=17, i=129]
3 x [i=18, i=128]
1 x [i=19, i=127]
1 x [i=20, i=125]
1 x [i=20, i=126]
1 x [i=21, i=124]
2 x [i=22, i=123]
1 x [i=23, i=121]
2 x [i=23, i=122]
1 x [i=23, i=176, i=205]
1 x [i=24, i=120]
1 x [i=24, i=157, i=220]
1 x [i=24, i=179, i=200]
1 x [i=25, i=119]
2 x [i=26, i=118]
1 x [i=27, i=117]
1 x [i=28, i=116]
1 x [i=28, i=176, i=199]
1 x [i=29, i=153, i=219]
1 x [i=29, i=183, i=190]
1 x [i=30, i=154, i=216]
1 x [i=31, i=152, i=219]
1 x [i=31, i=177, i=195]
1 x [i=32, i=112]
2 x [i=33, i=173, i=197]
2 x [i=33, i=174, i=196]
1 x [i=33, i=181, i=188]
1 x [i=34, i=110]
1 x [i=34, i=174, i=195]
1 x [i=35, i=109]
1 x [i=36, i=109]
1 x [i=37, i=197]
2 x [i=38, i=160, i=206]
1 x [i=39, i=108]
2 x [i=40, i=106]
1 x [i=41, i=104]
1 x [i=42, i=102]
1 x [i=42, i=142, i=217]
2 x [i=43, i=101]
1 x [i=43, i=150, i=209]
1 x [i=44, i=100]
1 x [i=45, i=99]
1 x [i=46, i=98]
2 x [i=47, i=97]
1 x [i=47, i=167, i=188]
1 x [i=48, i=96]
1 x [i=48, i=171, i=184]
2 x [i=49, i=95]
1 x [i=50, i=94]
1 x [i=50, i=95]
1 x [i=50, i=159, i=192]
1 x [i=51, i=92]
1 x [i=52, i=91]
1 x [i=53, i=89]
1 x [i=53, i=90]
1 x [i=53, i=160, i=187]
1 x [i=53, i=168, i=182]
2 x [i=54, i=135, i=212]
1 x [i=55, i=88]
1 x [i=55, i=151, i=197]
1 x [i=56, i=87]
1 x [i=57, i=85]
1 x [i=58, i=84]
1 x [i=59, i=83]
1 x [i=59, i=170, i=175]
1 x [i=60, i=82]
1 x [i=60, i=130, i=218]
1 x [i=60, i=135]
1 x [i=60, i=155, i=185]
1 x [i=61, i=162, i=180]
1 x [i=61, i=170, i=173]
1 x [i=62, i=79]
1 x [i=63, i=78]
1 x [i=64, i=77]
3 x [i=65, i=76]
1 x [i=65, i=137, i=199]
1 x [i=65, i=159, i=177]
1 x [i=66, i=75]
1 x [i=67, i=71]
2 x [i=68, i=70]
1 x [i=69, i=127, i=206]
1 x [i=72, i=166, i=167]
1 x [i=73, i=147, i=182]
2 x [i=73, i=157, i=171]
1 x [i=74, i=136, i=191]
1 x [i=75, i=107, i=220]
1 x [i=77, i=148, i=177]
1 x [i=77, i=164, i=203]
1 x [i=78, i=152, i=173]
1 x [i=80, i=113, i=211]
1 x [i=81, i=128, i=194]
1 x [i=84, i=148, i=172]
1 x [i=84, i=155, i=162]
1 x [i=84, i=156, i=161]
1 x [i=86, i=138, i=179]
1 x [i=91, i=112, i=200]
1 x [i=92, i=107, i=208]
1 x [i=92, i=135, i=177]
2 x [i=93, i=108, i=206]
2 x [i=93, i=149, i=163]
1 x [i=95, i=141, i=169]
1 x [i=99, i=106, i=201]
1 x [i=99, i=112, i=193]
1 x [i=103, i=107, i=196]
1 x [i=103, i=137, i=165]
1 x [i=105, i=135, i=165]
1 x [i=106, i=111, i=187]
1 x [i=108, i=135, i=163]
1 x [i=109, i=115, i=178]
1 x [i=109, i=126, i=170]
1 x [i=114, i=130, i=158]
1 x [i=114, i=142, i=146]
